StudentsNr = 10;
InstructorsNr = 87;
DaysNr = 2;
SlotsPerDay = 20;
AvailabilitySlotsLenght = 10;
RoomNr = 1;
ProgrammNr = 2;
DegreeNr = 3;
RolesNr = 3;
CoursesNr = 6;
InstructorsProgramm = [{2}, {2}, {1}, {1, 2}, {1}, {2}, {2}, {2}, {1}, {1, 2}, {1}, {1, 2}, {2}, {1, 2}, {1}, {2}, {1}, {1}, {1}, {1, 2}, {2}, {1, 2}, {2}, {1}, {2}, {1, 2}, {1, 2}, {1, 2}, {2}, {1}, {1, 2}, {2}, {1, 2}, {1, 2}, {1, 2}, {2}, {1}, {2}, {1}, {1}, {1}, {2}, {1, 2}, {2}, {2}, {1, 2}, {1}, {1}, {1, 2}, {1, 2}, {2}, {1}, {1}, {1}, {1}, {2}, {1}, {2}, {1}, {2}, {1}, {1}, {1}, {1}, {1}, {1, 2}, {2}, {2}, {2}, {2}, {1}, {2}, {2}, {2}, {1, 2}, {2}, {2}, {1, 2}, {1, 2}, {1}, {1}, {2}, {2}, {2}, {1, 2}, {2}, {2}];
InstructorRolesPerProgramm = [|{9, 10, 12, 15, 20, 24, 27, 30, 33, 34, 35, 47, 48, 50, 53, 55, 57, 63, 71, 79, 80}, {5, 11, 17, 27, 30, 31, 33, 46, 47, 54, 55, 59, 65, 66, 71, 78}, {9, 12, 17, 26, 31, 35, 39, 40, 41, 43, 46, 55, 61, 63, 64, 66, 71, 78}|{6, 7, 8, 10, 12, 13, 20, 25, 27, 29, 33, 34, 35, 42, 50, 51, 58, 60, 67, 68, 72, 74, 77, 79, 84, 87}, {1, 13, 16, 21, 25, 27, 31, 33, 38, 46, 51, 66, 76, 77, 78, 82, 86}, {6, 8, 12, 21, 23, 26, 31, 35, 36, 38, 42, 43, 45, 46, 58, 66, 67, 69, 70, 72, 76, 78, 82, 86}|];
InstructorsAvailability = [|1, 1, 1, 1, |1, 1, 1, 1, |1, 0, 1, 1, |0, 0, 1, 1, |0, 0, 0, 0, |0, 1, 1, 1, |1, 1, 1, 1, |1, 0, 1, 1, |0, 1, 1, 0, |1, 1, 1, 1, |1, 1, 1, 1, |1, 0, 1, 1, |0, 1, 1, 1, |1, 1, 1, 1, |0, 1, 1, 1, |1, 1, 1, 1, |1, 1, 1, 1, |1, 1, 1, 1, |1, 1, 1, 1, |0, 1, 0, 1, |1, 1, 1, 1, |0, 1, 1, 1, |0, 0, 1, 1, |1, 1, 1, 1, |1, 1, 1, 1, |1, 1, 1, 1, |1, 0, 1, 1, |0, 0, 1, 1, |0, 0, 1, 0, |1, 1, 0, 1, |1, 1, 1, 1, |1, 1, 1, 1, |1, 1, 1, 1, |1, 1, 0, 0, |1, 1, 1, 1, |1, 0, 0, 1, |1, 1, 1, 1, |1, 1, 1, 1, |1, 1, 1, 1, |0, 1, 0, 1, |1, 1, 1, 1, |0, 1, 0, 0, |0, 1, 1, 1, |1, 1, 1, 1, |0, 0, 1, 1, |0, 0, 1, 1, |1, 1, 1, 1, |1, 1, 1, 1, |1, 1, 1, 1, |1, 1, 1, 1, |0, 0, 0, 1, |1, 0, 1, 1, |1, 1, 1, 1, |0, 0, 1, 1, |0, 0, 1, 0, |1, 1, 1, 1, |0, 1, 1, 1, |1, 1, 1, 1, |0, 1, 1, 1, |1, 1, 1, 0, |0, 0, 1, 1, |0, 1, 1, 1, |1, 1, 1, 1, |0, 1, 0, 0, |0, 1, 1, 1, |0, 1, 1, 1, |1, 1, 1, 1, |1, 1, 1, 1, |0, 1, 1, 1, |0, 0, 1, 1, |0, 1, 1, 1, |0, 0, 1, 1, |0, 1, 0, 1, |0, 1, 1, 1, |1, 1, 1, 1, |1, 1, 1, 1, |0, 1, 1, 1, |0, 1, 1, 0, |0, 1, 1, 0, |1, 1, 1, 1, |0, 1, 1, 1, |0, 0, 1, 0, |0, 1, 1, 1, |0, 0, 0, 1, |0, 1, 1, 1, |0, 0, 0, 0, |1, 1, 1, 0|];
StudentsProgramm = [2, 1, 1, 1, 1, 1, 1, 1, 1, 1];
StudentsDegree = [3, 1, 1, 2, 1, 3, 1, 3, 1, 2];
StudentsSupervisorId = [74, 62, 5, 12, 59, 63, 81, 46, 66, 75];
StudentsCourseIds = [{1, 2, 3, 4}, {1, 3, 4, 5, 6}, {2, 3, 4, 5, 6}, {1, 4, 5, 6}, {1, 2, 3, 4, 6}, {2, 4, 5, 6}, {1, 2, 3, 4, 6}, {1, 3, 4, 6}, {1, 2, 3, 4, 6}, {1, 2, 5, 6}];
StudentsAvailability = [|1, 0, 1, 1, |0, 0, 0, 1, |0, 1, 1, 1, |0, 0, 0, 0, |1, 1, 1, 1, |0, 1, 1, 1, |1, 1, 1, 1, |0, 0, 1, 0, |1, 1, 0, 0, |0, 0, 1, 1|];
TheoryticalMinCard = [0, 0, 0, 0, 0, 0, 0, 0, 0, 0];
CoursesInstructorIds = [{1, 2, 4, 5, 8, 9, 10, 14, 15, 16, 20, 21, 22, 27, 29, 30, 31, 33, 35, 36, 37, 39, 40, 43, 44, 46, 47, 48, 50, 51, 56, 57, 58, 60, 61, 62, 63, 64, 65, 67, 69, 70, 75, 76, 78, 79, 83, 84, 85, 86}, {2, 3, 6, 10, 13, 14, 16, 17, 18, 20, 22, 23, 28, 29, 33, 35, 38, 41, 42, 43, 46, 47, 50, 51, 56, 58, 59, 66, 67, 69, 71, 73, 74, 79, 80, 81, 85}, {1, 3, 5, 7, 10, 13, 14, 15, 16, 17, 20, 21, 23, 29, 31, 32, 36, 38, 41, 43, 46, 50, 53, 56, 60, 61, 64, 66, 67, 69, 77, 81, 83, 84}, {1, 4, 5, 7, 9, 15, 16, 17, 20, 23, 25, 27, 29, 33, 35, 37, 38, 39, 40, 41, 43, 47, 53, 54, 56, 59, 60, 68, 70, 73, 75, 76, 77, 79, 80, 83, 84, 85, 86}, {1, 4, 5, 6, 10, 11, 17, 24, 27, 32, 38, 39, 44, 46, 47, 48, 55, 60, 62, 64, 65, 72, 74, 76, 77, 79, 82, 83, 85, 86, 87}, {1, 3, 4, 8, 9, 11, 14, 18, 20, 21, 24, 26, 28, 31, 32, 34, 36, 37, 39, 40, 41, 44, 48, 49, 51, 52, 56, 61, 62, 63, 64, 65, 66, 68, 71, 76, 79, 81, 82, 83, 87}];
RolesDemands = [9, 16, 10];
RolesContinuity = [1];
ExamLen = [1, 1, 1, 1, 1, 1, 1, 1, 1, 1];
LunchTsMinLen = 0;
LunchStarts = [6..11, 30..33];
SupervisorAvailable = 5;
OptimalLunchLenght = [3, 0];
OptimalStartTs = [0, 0];
OptimalFinishTs = [2, 20];
MinimizeRooms = 400;
RolesSoftContinuity = [|1, 2, 3|1, 2, 2|];
SameDegreeInRoom = 10;
Mergeability = 2;
